
Gurobi 9.1.2 (linux64) logging started Sat Nov  6 23:09:42 2021

Changed value of parameter LogFile to gurobi.log
   Prev:   Default: 
Changed value of parameter MIPGap to 0.01
   Prev: 0.0001  Min: 0.0  Max: inf  Default: 0.0001
Changed value of parameter TimeLimit to 3600.0
   Prev: inf  Min: 0.0  Max: inf  Default: inf
Changed value of parameter MIPFocus to 1
   Prev: 0  Min: 0  Max: 3  Default: 0
Changed value of parameter IntFeasTol to 1e-06
   Prev: 1e-05  Min: 1e-09  Max: 0.1  Default: 1e-05
Gurobi Optimizer version 9.1.2 build v9.1.2rc0 (linux64)
Thread count: 8 physical cores, 16 logical processors, using up to 16 threads
Optimize a model with 8318 rows, 4239 columns and 25245 nonzeros
Model fingerprint: 0xb2054810
Variable types: 3064 continuous, 1175 integer (1175 binary)
Coefficient statistics:
  Matrix range     [6e-08, 4e+08]
  Objective range  [1e+00, 1e+00]
  Bounds range     [1e+00, 1e+00]
  RHS range        [1e+00, 6e+08]
Warning: Model contains large matrix coefficient range
         Consider reformulating model or setting NumericFocus parameter
         to avoid numerical issues.
Presolve removed 3127 rows and 1871 columns
Presolve time: 0.03s
Presolved: 5191 rows, 2368 columns, 16104 nonzeros
Variable types: 1236 continuous, 1132 integer (1124 binary)
Found heuristic solution: objective 1099.9341837
Found heuristic solution: objective 464.1853860

Root relaxation: objective 2.861771e-05, 3094 iterations, 0.13 seconds

    Nodes    |    Current Node    |     Objective Bounds      |     Work
 Expl Unexpl |  Obj  Depth IntInf | Incumbent    BestBd   Gap | It/Node Time

     0     0    0.00003    0  535  464.18539    0.00003   100%     -    0s
H    0     0                     416.2789977    0.00003   100%     -    1s
     0     0  110.26793    0  829  416.27900  110.26793  73.5%     -    1s
     0     0  186.36675    0  766  416.27900  186.36675  55.2%     -    2s
     0     0  186.36675    0  698  416.27900  186.36675  55.2%     -    2s
     0     0  186.36675    0  588  416.27900  186.36675  55.2%     -    2s
     0     0  186.36675    0  553  416.27900  186.36675  55.2%     -    2s
     0     0  186.36675    0  573  416.27900  186.36675  55.2%     -    2s
     0     0  186.36675    0  573  416.27900  186.36675  55.2%     -    2s
     0     0  186.36675    0    4  416.27900  186.36675  55.2%     -    2s
H    0     0                     410.2607190  186.36675  54.6%     -    2s
H    0     0                     410.2603127  186.36675  54.6%     -    2s
     0     2  186.36675    0    4  410.26031  186.36675  54.6%     -    2s
H   33    36                     409.9628770  378.01698  7.79%  1086    3s
H   34    36                     409.9478308  378.01698  7.79%  1075    3s
H  168   118                     409.9478159  378.09039  7.77%   407    4s
   208   128  408.68854   11   12  409.94782  378.09039  7.77%   362    5s
H  214   128                     409.9474208  378.09039  7.77%   352    5s
H  216   128                     409.9434130  378.09039  7.77%   350    5s
H  270   137                     409.9388482  383.68839  6.40%   297    5s
H  276   137                     408.4772938  383.68839  6.07%   292    5s
H  277   137                     408.4772502  383.68839  6.07%   291    5s
H  338   141                     408.4743996  383.68839  6.07%   258    6s
  1735   238 infeasible   17       408.47440  395.01235  3.30%   120   10s

Cutting planes:
  Implied bound: 108
  Clique: 1
  MIR: 12
  Zero half: 44
  RLT: 117
  Relax-and-lift: 4

Explored 5053 nodes (343881 simplex iterations) in 12.83 seconds
Thread count was 16 (of 16 available processors)

Solution count 10: 408.474 408.477 408.477 ... 410.26

Optimal solution found (tolerance 1.00e-02)
Best objective 4.084743996243e+02, best bound 4.049277743048e+02, gap 0.8683%

Gurobi 9.1.2 (linux64) logging started Sat Nov  6 23:44:33 2021

Changed value of parameter LogFile to gurobi.log
   Prev:   Default: 
Changed value of parameter MIPGap to 0.01
   Prev: 0.0001  Min: 0.0  Max: inf  Default: 0.0001
Changed value of parameter TimeLimit to 3600.0
   Prev: inf  Min: 0.0  Max: inf  Default: inf
Changed value of parameter MIPFocus to 1
   Prev: 0  Min: 0  Max: 3  Default: 0
Changed value of parameter IntFeasTol to 1e-06
   Prev: 1e-05  Min: 1e-09  Max: 0.1  Default: 1e-05
Gurobi Optimizer version 9.1.2 build v9.1.2rc0 (linux64)
Thread count: 8 physical cores, 16 logical processors, using up to 16 threads
Optimize a model with 8318 rows, 4239 columns and 25245 nonzeros
Model fingerprint: 0xb2054810
Variable types: 3064 continuous, 1175 integer (1175 binary)
Coefficient statistics:
  Matrix range     [6e-08, 4e+08]
  Objective range  [1e+00, 1e+00]
  Bounds range     [1e+00, 1e+00]
  RHS range        [1e+00, 6e+08]
Warning: Model contains large matrix coefficient range
         Consider reformulating model or setting NumericFocus parameter
         to avoid numerical issues.
Presolve removed 3127 rows and 1871 columns
Presolve time: 0.03s
Presolved: 5191 rows, 2368 columns, 16104 nonzeros
Variable types: 1236 continuous, 1132 integer (1124 binary)
Found heuristic solution: objective 1099.9341837
Found heuristic solution: objective 464.1853860

Root relaxation: objective 2.861771e-05, 3094 iterations, 0.13 seconds

    Nodes    |    Current Node    |     Objective Bounds      |     Work
 Expl Unexpl |  Obj  Depth IntInf | Incumbent    BestBd   Gap | It/Node Time

     0     0    0.00003    0  535  464.18539    0.00003   100%     -    0s
H    0     0                     416.2789977    0.00003   100%     -    1s
     0     0  110.26793    0  829  416.27900  110.26793  73.5%     -    1s
     0     0  186.36675    0  766  416.27900  186.36675  55.2%     -    1s
     0     0  186.36675    0  698  416.27900  186.36675  55.2%     -    2s
     0     0  186.36675    0  588  416.27900  186.36675  55.2%     -    2s
     0     0  186.36675    0  553  416.27900  186.36675  55.2%     -    2s
     0     0  186.36675    0  573  416.27900  186.36675  55.2%     -    2s
     0     0  186.36675    0  573  416.27900  186.36675  55.2%     -    2s
     0     0  186.36675    0    4  416.27900  186.36675  55.2%     -    2s
H    0     0                     410.2607190  186.36675  54.6%     -    2s
H    0     0                     410.2603127  186.36675  54.6%     -    2s
     0     2  186.36675    0    4  410.26031  186.36675  54.6%     -    2s
H   33    36                     409.9628770  378.01698  7.79%  1086    3s
H   34    36                     409.9478308  378.01698  7.79%  1075    3s
H  168   118                     409.9478159  378.09039  7.77%   407    4s
H  214   128                     409.9474208  378.09039  7.77%   352    4s
H  216   128                     409.9434130  378.09039  7.77%   350    4s
   232   136  409.03290   14   17  409.94341  383.68839  6.40%   331    5s
H  270   137                     409.9388482  383.68839  6.40%   297    5s
H  276   137                     408.4772938  383.68839  6.07%   292    5s
H  277   137                     408.4772502  383.68839  6.07%   291    5s
H  338   141                     408.4743996  383.68839  6.07%   258    5s
  1892   247  403.04835   16  106  408.47440  395.62901  3.14%   114   10s

Cutting planes:
  Implied bound: 108
  Clique: 1
  MIR: 12
  Zero half: 44
  RLT: 117
  Relax-and-lift: 4

Explored 5053 nodes (343881 simplex iterations) in 12.82 seconds
Thread count was 16 (of 16 available processors)

Solution count 10: 408.474 408.477 408.477 ... 410.26

Optimal solution found (tolerance 1.00e-02)
Best objective 4.084743996243e+02, best bound 4.049277743048e+02, gap 0.8683%

Gurobi 9.1.2 (linux64) logging started Sun Nov  7 14:05:23 2021

Changed value of parameter LogFile to gurobi.log
   Prev:   Default: 
Changed value of parameter MIPGap to 0.01
   Prev: 0.0001  Min: 0.0  Max: inf  Default: 0.0001
Changed value of parameter TimeLimit to 3600.0
   Prev: inf  Min: 0.0  Max: inf  Default: inf
Changed value of parameter MIPFocus to 1
   Prev: 0  Min: 0  Max: 3  Default: 0
Changed value of parameter IntFeasTol to 1e-06
   Prev: 1e-05  Min: 1e-09  Max: 0.1  Default: 1e-05
Gurobi Optimizer version 9.1.2 build v9.1.2rc0 (linux64)
Thread count: 8 physical cores, 16 logical processors, using up to 16 threads
Optimize a model with 8318 rows, 4239 columns and 25245 nonzeros
Model fingerprint: 0xb2054810
Variable types: 3064 continuous, 1175 integer (1175 binary)
Coefficient statistics:
  Matrix range     [6e-08, 4e+08]
  Objective range  [1e+00, 1e+00]
  Bounds range     [1e+00, 1e+00]
  RHS range        [1e+00, 6e+08]
Warning: Model contains large matrix coefficient range
         Consider reformulating model or setting NumericFocus parameter
         to avoid numerical issues.
Presolve removed 3127 rows and 1871 columns
Presolve time: 0.03s
Presolved: 5191 rows, 2368 columns, 16104 nonzeros
Variable types: 1236 continuous, 1132 integer (1124 binary)
Found heuristic solution: objective 1099.9341837
Found heuristic solution: objective 464.1853860

Root relaxation: objective 2.861771e-05, 3094 iterations, 0.13 seconds

    Nodes    |    Current Node    |     Objective Bounds      |     Work
 Expl Unexpl |  Obj  Depth IntInf | Incumbent    BestBd   Gap | It/Node Time

     0     0    0.00003    0  535  464.18539    0.00003   100%     -    0s
H    0     0                     416.2789977    0.00003   100%     -    1s
     0     0  110.26793    0  829  416.27900  110.26793  73.5%     -    1s
     0     0  186.36675    0  766  416.27900  186.36675  55.2%     -    2s
     0     0  186.36675    0  698  416.27900  186.36675  55.2%     -    2s
     0     0  186.36675    0  588  416.27900  186.36675  55.2%     -    2s
     0     0  186.36675    0  553  416.27900  186.36675  55.2%     -    2s
     0     0  186.36675    0  573  416.27900  186.36675  55.2%     -    2s
     0     0  186.36675    0  573  416.27900  186.36675  55.2%     -    2s
     0     0  186.36675    0    4  416.27900  186.36675  55.2%     -    2s
H    0     0                     410.2607190  186.36675  54.6%     -    2s
H    0     0                     410.2603127  186.36675  54.6%     -    2s
     0     2  186.36675    0    4  410.26031  186.36675  54.6%     -    2s
H   33    36                     409.9628770  378.01698  7.79%  1086    4s
H   34    36                     409.9478308  378.01698  7.79%  1075    4s
H  168   118                     409.9478159  378.09039  7.77%   407    4s
   184   126  394.18006    8  222  409.94782  378.09039  7.77%   387    5s
H  214   128                     409.9474208  378.09039  7.77%   352    5s
H  216   128                     409.9434130  378.09039  7.77%   350    5s
H  270   137                     409.9388482  383.68839  6.40%   297    5s
H  276   137                     408.4772938  383.68839  6.07%   292    5s
H  277   137                     408.4772502  383.68839  6.07%   291    5s
H  338   141                     408.4743996  383.68839  6.07%   258    6s
  1596   231 infeasible   17       408.47440  394.19490  3.50%   127   10s

Cutting planes:
  Implied bound: 108
  Clique: 1
  MIR: 12
  Zero half: 44
  RLT: 117
  Relax-and-lift: 4

Explored 5053 nodes (343881 simplex iterations) in 13.07 seconds
Thread count was 16 (of 16 available processors)

Solution count 10: 408.474 408.477 408.477 ... 410.26

Optimal solution found (tolerance 1.00e-02)
Best objective 4.084743996243e+02, best bound 4.049277743048e+02, gap 0.8683%

Gurobi 9.1.2 (linux64) logging started Mon Nov  8 10:59:28 2021

Changed value of parameter LogFile to gurobi.log
   Prev:   Default: 
Changed value of parameter MIPGap to 0.01
   Prev: 0.0001  Min: 0.0  Max: inf  Default: 0.0001
Changed value of parameter TimeLimit to 1200.0
   Prev: inf  Min: 0.0  Max: inf  Default: inf
Changed value of parameter MIPFocus to 1
   Prev: 0  Min: 0  Max: 3  Default: 0
Gurobi Optimizer version 9.1.2 build v9.1.2rc0 (linux64)
Thread count: 8 physical cores, 16 logical processors, using up to 16 threads
Optimize a model with 5118 rows, 3299 columns and 15524 nonzeros
Model fingerprint: 0xb49036d2
Variable types: 2359 continuous, 940 integer (940 binary)
Coefficient statistics:
  Matrix range     [6e-08, 4e+08]
  Objective range  [1e+00, 1e+00]
  Bounds range     [1e+00, 1e+00]
  RHS range        [1e+00, 2e+10]
Warning: Model contains large matrix coefficient range
Warning: Model contains large rhs
         Consider reformulating model or setting NumericFocus parameter
         to avoid numerical issues.
Presolve removed 2568 rows and 1544 columns
Presolve time: 0.02s
Presolved: 2550 rows, 1755 columns, 8045 nonzeros
Variable types: 1 continuous, 1754 integer (1754 binary)
Found heuristic solution: objective 1135.1090858
Found heuristic solution: objective 49.3525689

Root relaxation: objective 1.629937e+01, 1883 iterations, 0.06 seconds

    Nodes    |    Current Node    |     Objective Bounds      |     Work
 Expl Unexpl |  Obj  Depth IntInf | Incumbent    BestBd   Gap | It/Node Time

     0     0   16.29937    0  805   49.35257   16.29937  67.0%     -    0s
H    0     0                      47.9960903   16.29937  66.0%     -    0s
     0     0   16.29937    0  806   47.99609   16.29937  66.0%     -    0s
H    0     0                      44.7717126   16.29937  63.6%     -    0s
     0     0   16.94959    0  747   44.77171   16.94959  62.1%     -    0s
     0     0   16.94959    0  753   44.77171   16.94959  62.1%     -    0s
H    0     0                      37.4557298   16.94959  54.7%     -    0s
H    0     0                      31.0079095   16.94959  45.3%     -    0s
H    0     0                      27.9185677   16.94959  39.3%     -    0s
     0     0   16.94959    0  754   27.91857   16.94959  39.3%     -    0s

Cutting planes:
  Implied bound: 3
  Clique: 2
  Zero half: 9
  RLT: 19

Explored 1 nodes (4184 simplex iterations) in 0.35 seconds
Thread count was 16 (of 16 available processors)

Solution count 7: 27.9186 31.0079 37.4557 ... 1135.11

Optimal solution found (tolerance 1.00e-02)
Best objective 2.791856767991e+01, best bound 2.791856767991e+01, gap 0.0000%

Gurobi 9.1.2 (linux64) logging started Mon Nov  8 11:00:29 2021

Changed value of parameter LogFile to gurobi.log
   Prev:   Default: 
Changed value of parameter MIPGap to 0.01
   Prev: 0.0001  Min: 0.0  Max: inf  Default: 0.0001
Changed value of parameter TimeLimit to 1200.0
   Prev: inf  Min: 0.0  Max: inf  Default: inf
Changed value of parameter MIPFocus to 1
   Prev: 0  Min: 0  Max: 3  Default: 0
Gurobi Optimizer version 9.1.2 build v9.1.2rc0 (linux64)
Thread count: 8 physical cores, 16 logical processors, using up to 16 threads
Optimize a model with 5118 rows, 3299 columns and 15524 nonzeros
Model fingerprint: 0xb49036d2
Variable types: 2359 continuous, 940 integer (940 binary)
Coefficient statistics:
  Matrix range     [6e-08, 4e+08]
  Objective range  [1e+00, 1e+00]
  Bounds range     [1e+00, 1e+00]
  RHS range        [1e+00, 2e+10]
Warning: Model contains large matrix coefficient range
Warning: Model contains large rhs
         Consider reformulating model or setting NumericFocus parameter
         to avoid numerical issues.
Presolve removed 2568 rows and 1544 columns
Presolve time: 0.01s
Presolved: 2550 rows, 1755 columns, 8045 nonzeros
Variable types: 1 continuous, 1754 integer (1754 binary)
Found heuristic solution: objective 1135.1090858
Found heuristic solution: objective 49.3525689

Root relaxation: objective 1.629937e+01, 1883 iterations, 0.06 seconds

    Nodes    |    Current Node    |     Objective Bounds      |     Work
 Expl Unexpl |  Obj  Depth IntInf | Incumbent    BestBd   Gap | It/Node Time

     0     0   16.29937    0  805   49.35257   16.29937  67.0%     -    0s
H    0     0                      47.9960903   16.29937  66.0%     -    0s
     0     0   16.29937    0  806   47.99609   16.29937  66.0%     -    0s
H    0     0                      44.7717126   16.29937  63.6%     -    0s
     0     0   16.94959    0  747   44.77171   16.94959  62.1%     -    0s
     0     0   16.94959    0  753   44.77171   16.94959  62.1%     -    0s
H    0     0                      37.4557298   16.94959  54.7%     -    0s
H    0     0                      31.0079095   16.94959  45.3%     -    0s
H    0     0                      27.9185677   16.94959  39.3%     -    0s
     0     0   16.94959    0  754   27.91857   16.94959  39.3%     -    0s

Cutting planes:
  Implied bound: 3
  Clique: 2
  Zero half: 9
  RLT: 19

Explored 1 nodes (4184 simplex iterations) in 0.34 seconds
Thread count was 16 (of 16 available processors)

Solution count 7: 27.9186 31.0079 37.4557 ... 1135.11

Optimal solution found (tolerance 1.00e-02)
Best objective 2.791856767991e+01, best bound 2.791856767991e+01, gap 0.0000%

Gurobi 9.1.2 (linux64) logging started Tue Nov  9 16:41:25 2021

Changed value of parameter LogFile to gurobi.log
   Prev:   Default: 
Changed value of parameter MIPGap to 0.01
   Prev: 0.0001  Min: 0.0  Max: inf  Default: 0.0001
Changed value of parameter TimeLimit to 1200.0
   Prev: inf  Min: 0.0  Max: inf  Default: inf
Changed value of parameter MIPFocus to 1
   Prev: 0  Min: 0  Max: 3  Default: 0
Gurobi Optimizer version 9.1.2 build v9.1.2rc0 (linux64)
Thread count: 8 physical cores, 16 logical processors, using up to 16 threads
Optimize a model with 5118 rows, 3299 columns and 15524 nonzeros
Model fingerprint: 0xb49036d2
Variable types: 2359 continuous, 940 integer (940 binary)
Coefficient statistics:
  Matrix range     [6e-08, 4e+08]
  Objective range  [1e+00, 1e+00]
  Bounds range     [1e+00, 1e+00]
  RHS range        [1e+00, 2e+10]
Warning: Model contains large matrix coefficient range
Warning: Model contains large rhs
         Consider reformulating model or setting NumericFocus parameter
         to avoid numerical issues.
Presolve removed 2568 rows and 1544 columns
Presolve time: 0.02s
Presolved: 2550 rows, 1755 columns, 8045 nonzeros
Variable types: 1 continuous, 1754 integer (1754 binary)
Found heuristic solution: objective 1135.1090858
Found heuristic solution: objective 49.3525689

Root relaxation: objective 1.629937e+01, 1883 iterations, 0.06 seconds

    Nodes    |    Current Node    |     Objective Bounds      |     Work
 Expl Unexpl |  Obj  Depth IntInf | Incumbent    BestBd   Gap | It/Node Time

     0     0   16.29937    0  805   49.35257   16.29937  67.0%     -    0s
H    0     0                      47.9960903   16.29937  66.0%     -    0s
     0     0   16.29937    0  806   47.99609   16.29937  66.0%     -    0s
H    0     0                      44.7717126   16.29937  63.6%     -    0s
     0     0   16.94959    0  747   44.77171   16.94959  62.1%     -    0s
     0     0   16.94959    0  753   44.77171   16.94959  62.1%     -    0s
H    0     0                      37.4557298   16.94959  54.7%     -    0s
H    0     0                      31.0079095   16.94959  45.3%     -    0s
H    0     0                      27.9185677   16.94959  39.3%     -    0s
     0     0   16.94959    0  754   27.91857   16.94959  39.3%     -    0s

Cutting planes:
  Implied bound: 3
  Clique: 2
  Zero half: 9
  RLT: 19

Explored 1 nodes (4184 simplex iterations) in 0.39 seconds
Thread count was 16 (of 16 available processors)

Solution count 7: 27.9186 31.0079 37.4557 ... 1135.11

Optimal solution found (tolerance 1.00e-02)
Best objective 2.791856767991e+01, best bound 2.791856767991e+01, gap 0.0000%
